
===== New CPLEX run =====
Instance: /home/yorig/tuner/mpils-tests/instances/miplib/easy/lotsize.mps
Config: /scratch/yorig/mpils-results-grid-seconds-5-watchdog/easy/24proc/seed-5/4_lotsize_seed-5_20260504_011421/iterated_local_search/run_2_worker_20/ils_config_10470048598117265203.prm
========================

Selected objective sense:  MINIMIZE
Selected objective  name:  R1921
Selected RHS        name:  B
Selected bound      name:  BOUND
Wall watchdog: enabled factor=1 grace=1 limit=6 seconds
Version identifier: 22.1.2.0 | 2024-11-26 | 0edbb82fd
CPXPARAM_Threads                                 8
CPXPARAM_Parallel                                1
CPXPARAM_MIP_Cuts_Cliques                        2
CPXPARAM_MIP_Cuts_FlowCovers                     2
CPXPARAM_MIP_Cuts_Implied                        -1
CPXPARAM_MIP_Limits_GomoryCand                   100
CPXPARAM_MIP_Cuts_Gomory                         2
CPXPARAM_MIP_Cuts_PathCut                        1
CPXPARAM_MIP_Cuts_MIRCut                         2
CPXPARAM_Emphasis_MIP                            3
CPXPARAM_TimeLimit                               5
CPXPARAM_MIP_Limits_CutsFactor                   4
Tried aggregator 1 time.
MIP Presolve eliminated 595 rows and 0 columns.
MIP Presolve added 1190 rows and 0 columns.
MIP Presolve modified 10 coefficients.
Reduced MIP has 2515 rows, 2985 columns, and 7755 nonzeros.
Reduced MIP has 1195 binaries, 0 generals, 0 SOSs, and 0 indicators.
Presolve time = 0.00 sec. (4.53 ticks)
Probing fixed 0 vars, tightened 5487 bounds.
Probing time = 0.01 sec. (18.38 ticks)
Tried aggregator 2 times.
Detecting symmetries...
MIP Presolve modified 1206 coefficients.
Aggregator did 10 substitutions.
Reduced MIP has 2505 rows, 2975 columns, and 7735 nonzeros.
Reduced MIP has 1195 binaries, 0 generals, 0 SOSs, and 0 indicators.
Presolve time = 0.00 sec. (6.66 ticks)
Probing fixed 0 vars, tightened 2401 bounds.
Probing time = 0.00 sec. (6.41 ticks)
Clique table members: 160.
MIP emphasis: best bound.
MIP search method: dynamic search.
Parallel mode: deterministic, using up to 8 threads.
Root relaxation solution time = 0.01 sec. (9.68 ticks)

        Nodes                                         Cuts/
   Node  Left     Objective  IInf  Best Integer    Best Bound    ItCnt     Gap

      0     0   348385.3466   472                 348385.3466      882         
      0     0   550439.8506   508                   Cuts: 726     1936         
      0     0   774575.7486   660                   Cuts: 726     2810         
*     0+    0                       1.01740e+07   774575.7486            92.39%
*     0+    0                      7973370.0000   774575.7486            90.29%
      0     0   917550.1004   683  7973370.0000     Cuts: 726     3565   88.49%
      0     0  1017713.9223   721  7973370.0000     Cuts: 726     4244   87.02%
*     0+    0                      2016180.0000  1034650.4014            48.68%
      0     0  1105711.7965   680  2016180.0000     Cuts: 726     4903   45.16%
Detecting symmetries...
      0     0  1163329.6149   751  2016180.0000     Cuts: 726     5650   42.30%
      0     0  1199106.3248   772  2016180.0000     Cuts: 726     6259   40.53%
      0     0  1221486.5484   790  2016180.0000     Cuts: 578     6731   39.42%
      0     0  1247414.1210   830  2016180.0000     Cuts: 589     7311   38.13%
      0     0  1265323.3266   793  2016180.0000     Cuts: 599     7837   37.24%
      0     0  1277813.5012   828  2016180.0000     Cuts: 549     8270   36.62%
      0     0  1285469.7325   839  2016180.0000     Cuts: 388     8597   36.24%
      0     0  1293239.1577   830  2016180.0000     Cuts: 275     8880   35.86%
      0     0  1297618.0994   824  2016180.0000     Cuts: 287     9110   35.64%
      0     0  1302203.1631   834  2016180.0000     Cuts: 261     9364   35.41%
      0     0  1304937.8335   853  2016180.0000     Cuts: 214     9577   35.28%
      0     0  1306778.9104   855  2016180.0000     Cuts: 161     9728   35.19%
*     0+    0                      1964597.0000  1306778.9104            33.48%
      0     0  1308279.2426   858  1964597.0000     Cuts: 148     9863   33.41%
      0     0  1309299.4528   861  1964597.0000     Cuts: 183    10000   33.36%
      0     0  1310734.0950   867  1964597.0000      Cuts: 84    10110   33.28%
*     0+    0                      1963381.0000  1310734.0950            33.24%
      0     0  1311325.8694   861  1963381.0000     Cuts: 103    10207   33.21%
      0     0  1311961.0339   860  1963381.0000     Cuts: 105    10282   33.18%
      0     0  1312259.3895   862  1963381.0000      Cuts: 24    10320   33.16%
      0     0  1312537.1758   871  1963381.0000      Cuts: 22    10376   33.15%
*     0+    0                      1855315.0000  1312537.1758            29.26%
*     0+    0                      1830018.0000  1312537.1758            28.28%
      0     0  -1.00000e+75     0  1830018.0000  1312537.1758    10376   28.28%
*     0+    0                      1740639.0000  1312537.1758            24.59%
Detecting symmetries...
      0     2  1312537.1758   871  1740639.0000  1312537.1758    10376   24.59%
Elapsed time = 4.91 sec. (8558.54 ticks, tree = 0.02 MB, solutions = 8)

Clique cuts applied:  1
Cover cuts applied:  12
Flow cuts applied:  479
Mixed integer rounding cuts applied:  1048
Flow path cuts applied:  33
Multi commodity flow cuts applied:  65
Lift and project cuts applied:  6
Gomory fractional cuts applied:  6

Root node processing (before b&c):
  Real time             =    4.90 sec. (8551.20 ticks)
Parallel b&c, 8 threads:
  Real time             =    0.11 sec. (183.31 ticks)
  Sync time (average)   =    0.07 sec.
  Wait time (average)   =    0.00 sec.
                          ------------
Total (root+branch&cut) =    5.00 sec. (8734.51 ticks)
Gap: 24.59%
Upper bound: 1.74064e+06
Lower bound: 1.31268e+06
Termination status: Normal
End of CPLEX run. Time: 5.00642 seconds

===== New CPLEX run =====
Instance: /home/yorig/tuner/mpils-tests/instances/miplib/easy/lotsize.mps
Config: /scratch/yorig/mpils-results-grid-seconds-5-watchdog/easy/24proc/seed-5/4_lotsize_seed-5_20260504_011421/iterated_local_search/run_2_worker_20/ils_config_3914835031867055524.prm
========================

Selected objective sense:  MINIMIZE
Selected objective  name:  R1921
Selected RHS        name:  B
Selected bound      name:  BOUND
Wall watchdog: enabled factor=1 grace=1 limit=6 seconds
Version identifier: 22.1.2.0 | 2024-11-26 | 0edbb82fd
CPXPARAM_Threads                                 8
CPXPARAM_Parallel                                1
CPXPARAM_MIP_Cuts_Cliques                        2
CPXPARAM_MIP_Cuts_FlowCovers                     2
CPXPARAM_MIP_Cuts_Implied                        -1
CPXPARAM_MIP_Cuts_GUBCovers                      1
CPXPARAM_MIP_Limits_GomoryCand                   100
CPXPARAM_MIP_Cuts_Gomory                         2
CPXPARAM_MIP_Cuts_PathCut                        1
CPXPARAM_MIP_Cuts_MIRCut                         2
CPXPARAM_Emphasis_MIP                            3
CPXPARAM_TimeLimit                               5
CPXPARAM_MIP_Limits_CutsFactor                   4
Tried aggregator 1 time.
MIP Presolve eliminated 595 rows and 0 columns.
MIP Presolve added 1190 rows and 0 columns.
MIP Presolve modified 10 coefficients.
Reduced MIP has 2515 rows, 2985 columns, and 7755 nonzeros.
Reduced MIP has 1195 binaries, 0 generals, 0 SOSs, and 0 indicators.
Presolve time = 0.00 sec. (4.53 ticks)
Probing fixed 0 vars, tightened 5487 bounds.
Probing time = 0.01 sec. (18.38 ticks)
Tried aggregator 2 times.
Detecting symmetries...
MIP Presolve modified 1206 coefficients.
Aggregator did 10 substitutions.
Reduced MIP has 2505 rows, 2975 columns, and 7735 nonzeros.
Reduced MIP has 1195 binaries, 0 generals, 0 SOSs, and 0 indicators.
Presolve time = 0.00 sec. (6.66 ticks)
Probing fixed 0 vars, tightened 2401 bounds.
Probing time = 0.00 sec. (6.41 ticks)
Clique table members: 160.
MIP emphasis: best bound.
MIP search method: dynamic search.
Parallel mode: deterministic, using up to 8 threads.
Root relaxation solution time = 0.01 sec. (9.68 ticks)

        Nodes                                         Cuts/
   Node  Left     Objective  IInf  Best Integer    Best Bound    ItCnt     Gap

      0     0   348385.3466   472                 348385.3466      882         
      0     0   550439.8506   508                   Cuts: 726     1936         
      0     0   774575.7486   660                   Cuts: 726     2810         
*     0+    0                       1.01740e+07   774575.7486            92.39%
*     0+    0                      7973370.0000   774575.7486            90.29%
      0     0   917550.1004   683  7973370.0000     Cuts: 726     3565   88.49%
      0     0  1017713.9223   721  7973370.0000     Cuts: 726     4244   87.02%
*     0+    0                      2016180.0000  1034650.4014            48.68%
      0     0  1105711.7965   680  2016180.0000     Cuts: 726     4903   45.16%
Detecting symmetries...
      0     0  1163329.6149   751  2016180.0000     Cuts: 726     5650   42.30%
      0     0  1199106.3248   772  2016180.0000     Cuts: 726     6259   40.53%
      0     0  1221486.5484   790  2016180.0000     Cuts: 578     6731   39.42%
      0     0  1247414.1210   830  2016180.0000     Cuts: 589     7311   38.13%
      0     0  1265323.3266   793  2016180.0000     Cuts: 599     7837   37.24%
      0     0  1277813.5012   828  2016180.0000     Cuts: 549     8270   36.62%
      0     0  1285469.7325   839  2016180.0000     Cuts: 388     8597   36.24%
      0     0  1293239.1577   830  2016180.0000     Cuts: 275     8880   35.86%
      0     0  1297618.0994   824  2016180.0000     Cuts: 287     9110   35.64%
      0     0  1302203.1631   834  2016180.0000     Cuts: 261     9364   35.41%
      0     0  1304937.8335   853  2016180.0000     Cuts: 214     9577   35.28%
      0     0  1306778.9104   855  2016180.0000     Cuts: 161     9728   35.19%
*     0+    0                      1964597.0000  1306778.9104            33.48%
      0     0  1308279.2426   858  1964597.0000     Cuts: 148     9863   33.41%
      0     0  1309299.4528   861  1964597.0000     Cuts: 183    10000   33.36%
      0     0  1310734.0950   867  1964597.0000      Cuts: 84    10110   33.28%
*     0+    0                      1963381.0000  1310734.0950            33.24%
      0     0  1311325.8694   861  1963381.0000     Cuts: 103    10207   33.21%
      0     0  1311961.0339   860  1963381.0000     Cuts: 105    10282   33.18%
      0     0  1312259.3895   862  1963381.0000      Cuts: 24    10320   33.16%
      0     0  1312537.1758   871  1963381.0000      Cuts: 22    10376   33.15%
*     0+    0                      1892765.0000  1312537.1758            30.66%
*     0+    0                      1856226.0000  1312537.1758            29.29%
*     0+    0                      1822688.0000  1312537.1758            27.99%
      0     0  -1.00000e+75     0  1822688.0000  1312537.1758    10376   27.99%
Detecting symmetries...
      0     2  1312537.1758   871  1822688.0000  1312537.1758    10376   27.99%
Elapsed time = 4.88 sec. (8530.25 ticks, tree = 0.02 MB, solutions = 8)

GUB cover cuts applied:  0
Clique cuts applied:  1
Cover cuts applied:  12
Flow cuts applied:  558
Mixed integer rounding cuts applied:  1077
Flow path cuts applied:  33
Multi commodity flow cuts applied:  65
Lift and project cuts applied:  6
Gomory fractional cuts applied:  6

Root node processing (before b&c):
  Real time             =    4.87 sec. (8522.82 ticks)
Parallel b&c, 8 threads:
  Real time             =    0.14 sec. (233.40 ticks)
  Sync time (average)   =    0.09 sec.
  Wait time (average)   =    0.00 sec.
                          ------------
Total (root+branch&cut) =    5.00 sec. (8756.22 ticks)
Gap: 27.98%
Upper bound: 1.82269e+06
Lower bound: 1.31268e+06
Termination status: Normal
End of CPLEX run. Time: 5.00492 seconds

===== New CPLEX run =====
Instance: /home/yorig/tuner/mpils-tests/instances/miplib/easy/lotsize.mps
Config: /scratch/yorig/mpils-results-grid-seconds-5-watchdog/easy/24proc/seed-5/4_lotsize_seed-5_20260504_011421/iterated_local_search/run_2_worker_20/ils_config_6845761371274049536.prm
========================

Selected objective sense:  MINIMIZE
Selected objective  name:  R1921
Selected RHS        name:  B
Selected bound      name:  BOUND
Wall watchdog: enabled factor=1 grace=1 limit=6 seconds
Version identifier: 22.1.2.0 | 2024-11-26 | 0edbb82fd
CPXPARAM_Threads                                 8
CPXPARAM_Parallel                                1
CPXPARAM_MIP_Cuts_Cliques                        1
CPXPARAM_MIP_Cuts_FlowCovers                     2
CPXPARAM_MIP_Cuts_Implied                        -1
CPXPARAM_MIP_Limits_GomoryCand                   100
CPXPARAM_MIP_Cuts_Gomory                         2
CPXPARAM_MIP_Cuts_PathCut                        1
CPXPARAM_MIP_Cuts_MIRCut                         2
CPXPARAM_Emphasis_MIP                            3
CPXPARAM_TimeLimit                               5
CPXPARAM_MIP_Limits_CutsFactor                   4
Tried aggregator 1 time.
MIP Presolve eliminated 595 rows and 0 columns.
MIP Presolve added 1190 rows and 0 columns.
MIP Presolve modified 10 coefficients.
Reduced MIP has 2515 rows, 2985 columns, and 7755 nonzeros.
Reduced MIP has 1195 binaries, 0 generals, 0 SOSs, and 0 indicators.
Presolve time = 0.00 sec. (4.53 ticks)
Probing fixed 0 vars, tightened 5487 bounds.
Probing time = 0.01 sec. (18.38 ticks)
Tried aggregator 2 times.
Detecting symmetries...
MIP Presolve modified 1206 coefficients.
Aggregator did 10 substitutions.
Reduced MIP has 2505 rows, 2975 columns, and 7735 nonzeros.
Reduced MIP has 1195 binaries, 0 generals, 0 SOSs, and 0 indicators.
Presolve time = 0.00 sec. (6.66 ticks)
Probing fixed 0 vars, tightened 2401 bounds.
Probing time = 0.00 sec. (6.41 ticks)
Clique table members: 160.
MIP emphasis: best bound.
MIP search method: dynamic search.
Parallel mode: deterministic, using up to 8 threads.
Root relaxation solution time = 0.01 sec. (9.68 ticks)

        Nodes                                         Cuts/
   Node  Left     Objective  IInf  Best Integer    Best Bound    ItCnt     Gap

      0     0   348385.3466   472                 348385.3466      882         
      0     0   550439.8506   508                   Cuts: 726     1936         
      0     0   774575.7486   660                   Cuts: 726     2810         
*     0+    0                       1.01740e+07   774575.7486            92.39%
*     0+    0                      7973370.0000   774575.7486            90.29%
      0     0   917550.1004   683  7973370.0000     Cuts: 726     3565   88.49%
      0     0  1017713.9223   721  7973370.0000     Cuts: 726     4244   87.02%
*     0+    0                      2016180.0000  1034650.4014            48.68%
      0     0  1105711.7965   680  2016180.0000     Cuts: 726     4903   45.16%
Detecting symmetries...
      0     0  1163329.6149   751  2016180.0000     Cuts: 726     5650   42.30%
      0     0  1199106.3248   772  2016180.0000     Cuts: 726     6259   40.53%
      0     0  1221486.5484   790  2016180.0000     Cuts: 578     6731   39.42%
      0     0  1247414.1210   830  2016180.0000     Cuts: 589     7311   38.13%
      0     0  1265323.3266   793  2016180.0000     Cuts: 599     7837   37.24%
      0     0  1277813.5012   828  2016180.0000     Cuts: 549     8270   36.62%
      0     0  1285469.7325   839  2016180.0000     Cuts: 388     8597   36.24%
      0     0  1293239.1577   830  2016180.0000     Cuts: 275     8880   35.86%
      0     0  1297618.0994   824  2016180.0000     Cuts: 287     9110   35.64%
      0     0  1302203.1631   834  2016180.0000     Cuts: 261     9364   35.41%
      0     0  1304937.8335   853  2016180.0000     Cuts: 214     9577   35.28%
      0     0  1306778.9104   855  2016180.0000     Cuts: 161     9728   35.19%
*     0+    0                      1964597.0000  1306778.9104            33.48%
      0     0  1308279.2426   858  1964597.0000     Cuts: 148     9863   33.41%
      0     0  1309299.4528   861  1964597.0000     Cuts: 183    10000   33.36%
      0     0  1310734.0950   867  1964597.0000      Cuts: 84    10110   33.28%
*     0+    0                      1963381.0000  1310734.0950            33.24%
      0     0  1311325.8694   861  1963381.0000     Cuts: 103    10207   33.21%
      0     0  1311961.0339   860  1963381.0000     Cuts: 105    10282   33.18%
      0     0  1312259.3895   862  1963381.0000      Cuts: 24    10320   33.16%
      0     0  1312537.1758   871  1963381.0000      Cuts: 22    10376   33.15%
*     0+    0                      1892765.0000  1312537.1758            30.66%
*     0+    0                      1856226.0000  1312537.1758            29.29%
*     0+    0                      1822688.0000  1312537.1758            27.99%
      0     0  -1.00000e+75     0  1822688.0000  1312537.1758    10376   27.99%
Detecting symmetries...
      0     2  1312537.1758   871  1822688.0000  1312537.1758    10376   27.99%
Elapsed time = 4.89 sec. (8530.25 ticks, tree = 0.02 MB, solutions = 8)

Clique cuts applied:  1
Cover cuts applied:  12
Flow cuts applied:  520
Mixed integer rounding cuts applied:  1059
Flow path cuts applied:  33
Multi commodity flow cuts applied:  65
Lift and project cuts applied:  6
Gomory fractional cuts applied:  6

Root node processing (before b&c):
  Real time             =    4.88 sec. (8522.82 ticks)
Parallel b&c, 8 threads:
  Real time             =    0.13 sec. (212.57 ticks)
  Sync time (average)   =    0.08 sec.
  Wait time (average)   =    0.00 sec.
                          ------------
Total (root+branch&cut) =    5.00 sec. (8735.39 ticks)
Gap: 27.98%
Upper bound: 1.82269e+06
Lower bound: 1.31268e+06
Termination status: Normal
End of CPLEX run. Time: 5.00499 seconds

===== New CPLEX run =====
Instance: /home/yorig/tuner/mpils-tests/instances/miplib/easy/lotsize.mps
Config: /scratch/yorig/mpils-results-grid-seconds-5-watchdog/easy/24proc/seed-5/4_lotsize_seed-5_20260504_011421/iterated_local_search/run_2_worker_20/ils_config_14238698855186467414.prm
========================

Selected objective sense:  MINIMIZE
Selected objective  name:  R1921
Selected RHS        name:  B
Selected bound      name:  BOUND
Wall watchdog: enabled factor=1 grace=1 limit=6 seconds
Version identifier: 22.1.2.0 | 2024-11-26 | 0edbb82fd
CPXPARAM_Threads                                 8
CPXPARAM_Parallel                                1
CPXPARAM_MIP_Cuts_Cliques                        2
CPXPARAM_MIP_Cuts_FlowCovers                     2
CPXPARAM_MIP_Cuts_Implied                        -1
CPXPARAM_MIP_Limits_GomoryCand                   100
CPXPARAM_MIP_Cuts_Gomory                         2
CPXPARAM_MIP_Cuts_PathCut                        1
CPXPARAM_MIP_Cuts_MIRCut                         2
CPXPARAM_Emphasis_MIP                            3
CPXPARAM_TimeLimit                               5
Tried aggregator 1 time.
MIP Presolve eliminated 595 rows and 0 columns.
MIP Presolve added 1190 rows and 0 columns.
MIP Presolve modified 10 coefficients.
Reduced MIP has 2515 rows, 2985 columns, and 7755 nonzeros.
Reduced MIP has 1195 binaries, 0 generals, 0 SOSs, and 0 indicators.
Presolve time = 0.00 sec. (4.53 ticks)
Probing fixed 0 vars, tightened 5487 bounds.
Probing time = 0.01 sec. (18.38 ticks)
Tried aggregator 2 times.
Detecting symmetries...
MIP Presolve modified 1206 coefficients.
Aggregator did 10 substitutions.
Reduced MIP has 2505 rows, 2975 columns, and 7735 nonzeros.
Reduced MIP has 1195 binaries, 0 generals, 0 SOSs, and 0 indicators.
Presolve time = 0.00 sec. (6.66 ticks)
Probing fixed 0 vars, tightened 2401 bounds.
Probing time = 0.00 sec. (6.41 ticks)
Clique table members: 160.
MIP emphasis: best bound.
MIP search method: dynamic search.
Parallel mode: deterministic, using up to 8 threads.
Root relaxation solution time = 0.01 sec. (9.68 ticks)

        Nodes                                         Cuts/
   Node  Left     Objective  IInf  Best Integer    Best Bound    ItCnt     Gap

      0     0   348385.3466   472                 348385.3466      882         
      0     0   550439.8506   508                   Cuts: 726     1936         
      0     0   774575.7486   660                   Cuts: 726     2810         
*     0+    0                       1.01740e+07   774575.7486            92.39%
*     0+    0                      7973370.0000   774575.7486            90.29%
      0     0   917550.1004   683  7973370.0000     Cuts: 726     3565   88.49%
      0     0  1017713.9223   721  7973370.0000     Cuts: 726     4244   87.02%
*     0+    0                      2016180.0000  1034650.4014            48.68%
      0     0  1105711.7965   680  2016180.0000     Cuts: 726     4903   45.16%
Detecting symmetries...
      0     0  1163329.6149   751  2016180.0000     Cuts: 726     5650   42.30%
      0     0  1199106.3248   772  2016180.0000     Cuts: 726     6259   40.53%
      0     0  1221486.5484   790  2016180.0000     Cuts: 578     6731   39.42%
      0     0  1247414.1210   830  2016180.0000     Cuts: 589     7311   38.13%
      0     0  1265323.3266   793  2016180.0000     Cuts: 599     7837   37.24%
      0     0  1277813.5012   828  2016180.0000     Cuts: 549     8270   36.62%
      0     0  1285469.7325   839  2016180.0000     Cuts: 388     8597   36.24%
      0     0  1293239.1577   830  2016180.0000     Cuts: 275     8880   35.86%
      0     0  1297618.0994   824  2016180.0000     Cuts: 287     9110   35.64%
      0     0  1302203.1631   834  2016180.0000     Cuts: 261     9364   35.41%
      0     0  1304937.8335   853  2016180.0000     Cuts: 214     9577   35.28%
      0     0  1306778.9104   855  2016180.0000     Cuts: 161     9728   35.19%
*     0+    0                      1964597.0000  1306778.9104            33.48%
      0     0  1308279.2426   858  1964597.0000     Cuts: 148     9863   33.41%
      0     0  1309299.4528   861  1964597.0000     Cuts: 183    10000   33.36%
      0     0  1310734.0950   867  1964597.0000      Cuts: 84    10110   33.28%
*     0+    0                      1963381.0000  1310734.0950            33.24%
      0     0  1311325.8694   861  1963381.0000     Cuts: 103    10207   33.21%
      0     0  1311961.0339   860  1963381.0000     Cuts: 105    10282   33.18%
      0     0  1312259.3895   862  1963381.0000      Cuts: 24    10320   33.16%
      0     0  1312537.1758   871  1963381.0000      Cuts: 22    10376   33.15%
*     0+    0                      1855315.0000  1312537.1758            29.26%
*     0+    0                      1830018.0000  1312537.1758            28.28%
      0     0  -1.00000e+75     0  1830018.0000  1312537.1758    10376   28.28%
*     0+    0                      1740639.0000  1312537.1758            24.59%
Detecting symmetries...
      0     2  1312537.1758   871  1740639.0000  1312537.1758    10376   24.59%
Elapsed time = 4.91 sec. (8558.54 ticks, tree = 0.02 MB, solutions = 8)

Clique cuts applied:  1
Cover cuts applied:  12
Flow cuts applied:  479
Mixed integer rounding cuts applied:  1048
Flow path cuts applied:  33
Multi commodity flow cuts applied:  65
Lift and project cuts applied:  6
Gomory fractional cuts applied:  6

Root node processing (before b&c):
  Real time             =    4.90 sec. (8551.20 ticks)
Parallel b&c, 8 threads:
  Real time             =    0.11 sec. (174.25 ticks)
  Sync time (average)   =    0.07 sec.
  Wait time (average)   =    0.00 sec.
                          ------------
Total (root+branch&cut) =    5.00 sec. (8725.45 ticks)
Gap: 24.59%
Upper bound: 1.74064e+06
Lower bound: 1.31268e+06
Termination status: Normal
End of CPLEX run. Time: 5.00521 seconds

===== New CPLEX run =====
Instance: /home/yorig/tuner/mpils-tests/instances/miplib/easy/lotsize.mps
Config: /scratch/yorig/mpils-results-grid-seconds-5-watchdog/easy/24proc/seed-5/4_lotsize_seed-5_20260504_011421/iterated_local_search/run_2_worker_20/ils_config_14050491161478575403.prm
========================

Selected objective sense:  MINIMIZE
Selected objective  name:  R1921
Selected RHS        name:  B
Selected bound      name:  BOUND
Wall watchdog: enabled factor=1 grace=1 limit=6 seconds
Version identifier: 22.1.2.0 | 2024-11-26 | 0edbb82fd
CPXPARAM_Threads                                 8
CPXPARAM_Parallel                                1
CPXPARAM_MIP_Cuts_Cliques                        2
CPXPARAM_MIP_Cuts_FlowCovers                     2
CPXPARAM_MIP_Cuts_Implied                        -1
CPXPARAM_MIP_Limits_GomoryCand                   100
CPXPARAM_MIP_Cuts_Gomory                         2
CPXPARAM_MIP_Cuts_PathCut                        1
CPXPARAM_MIP_Cuts_MIRCut                         2
CPXPARAM_MIP_Cuts_Disjunctive                    3
CPXPARAM_Emphasis_MIP                            3
CPXPARAM_TimeLimit                               5
CPXPARAM_MIP_Limits_CutsFactor                   4
Tried aggregator 1 time.
MIP Presolve eliminated 595 rows and 0 columns.
MIP Presolve added 1190 rows and 0 columns.
MIP Presolve modified 10 coefficients.
Reduced MIP has 2515 rows, 2985 columns, and 7755 nonzeros.
Reduced MIP has 1195 binaries, 0 generals, 0 SOSs, and 0 indicators.
Presolve time = 0.00 sec. (4.53 ticks)
Probing fixed 0 vars, tightened 5487 bounds.
Probing time = 0.01 sec. (18.38 ticks)
Tried aggregator 2 times.
Detecting symmetries...
MIP Presolve modified 1206 coefficients.
Aggregator did 10 substitutions.
Reduced MIP has 2505 rows, 2975 columns, and 7735 nonzeros.
Reduced MIP has 1195 binaries, 0 generals, 0 SOSs, and 0 indicators.
Presolve time = 0.00 sec. (6.66 ticks)
Probing fixed 0 vars, tightened 2401 bounds.
Probing time = 0.00 sec. (6.41 ticks)
Clique table members: 160.
MIP emphasis: best bound.
MIP search method: dynamic search.
Parallel mode: deterministic, using up to 8 threads.
Root relaxation solution time = 0.01 sec. (9.68 ticks)

        Nodes                                         Cuts/
   Node  Left     Objective  IInf  Best Integer    Best Bound    ItCnt     Gap

      0     0   348385.3466   472                 348385.3466      882         
*     0+    0                       1.01740e+07   348385.3466            96.58%
*     0+    0                      7973370.0000   348385.3466            95.63%
      0     0   514565.7784   493  7973370.0000     Cuts: 726     1785   93.55%
*     0+    0                      2016180.0000   514565.7784            74.48%
      0     0   759197.2383   605  2016180.0000     Cuts: 726     2666   62.34%
*     0+    0                      1981745.0000   759197.2383            61.69%
      0     0   898271.0397   736  1981745.0000     Cuts: 726     3455   54.67%

Clique cuts applied:  0
Cover cuts applied:  10
Flow cuts applied:  449
Mixed integer rounding cuts applied:  400
Flow path cuts applied:  129
Multi commodity flow cuts applied:  17
Lift and project cuts applied:  1
Gomory fractional cuts applied:  48
Disjunctive cuts applied:  54
Cone linearizations applied:  0

Root node processing (before b&c):
  Real time             =    5.01 sec. (8115.50 ticks)
Parallel b&c, 8 threads:
  Real time             =    0.00 sec. (0.00 ticks)
  Sync time (average)   =    0.00 sec.
  Wait time (average)   =    0.00 sec.
                          ------------
Total (root+branch&cut) =    5.01 sec. (8115.50 ticks)
Gap: 54.67%
Upper bound: 1.98174e+06
Lower bound: 898271
Termination status: Normal
End of CPLEX run. Time: 5.00951 seconds

===== New CPLEX run =====
Instance: /home/yorig/tuner/mpils-tests/instances/miplib/easy/lotsize.mps
Config: /scratch/yorig/mpils-results-grid-seconds-5-watchdog/easy/24proc/seed-5/4_lotsize_seed-5_20260504_011421/iterated_local_search/run_2_worker_20/ils_config_10493282870237141445.prm
========================

Selected objective sense:  MINIMIZE
Selected objective  name:  R1921
Selected RHS        name:  B
Selected bound      name:  BOUND
Wall watchdog: enabled factor=1 grace=1 limit=6 seconds
Version identifier: 22.1.2.0 | 2024-11-26 | 0edbb82fd
CPXPARAM_Threads                                 8
CPXPARAM_Parallel                                1
CPXPARAM_MIP_Cuts_Cliques                        2
CPXPARAM_MIP_Cuts_FlowCovers                     2
CPXPARAM_MIP_Cuts_Implied                        2
CPXPARAM_MIP_Limits_GomoryCand                   100
CPXPARAM_MIP_Cuts_Gomory                         2
CPXPARAM_MIP_Cuts_PathCut                        1
CPXPARAM_MIP_Cuts_MIRCut                         2
CPXPARAM_Emphasis_MIP                            3
CPXPARAM_TimeLimit                               5
CPXPARAM_MIP_Limits_CutsFactor                   4
Tried aggregator 1 time.
MIP Presolve eliminated 595 rows and 0 columns.
MIP Presolve added 1190 rows and 0 columns.
MIP Presolve modified 10 coefficients.
Reduced MIP has 2515 rows, 2985 columns, and 7755 nonzeros.
Reduced MIP has 1195 binaries, 0 generals, 0 SOSs, and 0 indicators.
Presolve time = 0.00 sec. (4.53 ticks)
Probing fixed 0 vars, tightened 5487 bounds.
Probing time = 0.01 sec. (18.38 ticks)
Tried aggregator 2 times.
Detecting symmetries...
MIP Presolve modified 1206 coefficients.
Aggregator did 10 substitutions.
Reduced MIP has 2505 rows, 2975 columns, and 7735 nonzeros.
Reduced MIP has 1195 binaries, 0 generals, 0 SOSs, and 0 indicators.
Presolve time = 0.00 sec. (6.66 ticks)
Probing fixed 0 vars, tightened 2401 bounds.
Probing time = 0.00 sec. (6.41 ticks)
Clique table members: 160.
MIP emphasis: best bound.
MIP search method: dynamic search.
Parallel mode: deterministic, using up to 8 threads.
Root relaxation solution time = 0.01 sec. (9.68 ticks)

        Nodes                                         Cuts/
   Node  Left     Objective  IInf  Best Integer    Best Bound    ItCnt     Gap

      0     0   348385.3466   472                 348385.3466      882         
      0     0   549235.7549   500                   Cuts: 726     1925         
      0     0   776159.3212   658                   Cuts: 726     2791         
*     0+    0                       1.01740e+07   776159.3212            92.37%
*     0+    0                      7973370.0000   776159.3212            90.27%
      0     0   919683.6037   693  7973370.0000     Cuts: 726     3553   88.47%
      0     0  1026025.1846   703  7973370.0000     Cuts: 726     4232   87.13%
      0     0  1093451.2288   713  7973370.0000     Cuts: 726     4888   86.29%
Detecting symmetries...
*     0+    0                      2016180.0000  1093451.2288            45.77%
      0     0  1161030.8032   719  2016180.0000     Cuts: 726     5584   42.41%
      0     0  1193638.7502   718  2016180.0000     Cuts: 726     6209   40.80%
      0     0  1225865.9371   780  2016180.0000     Cuts: 709     6795   39.20%
      0     0  1242108.4887   802  2016180.0000     Cuts: 527     7222   38.39%
      0     0  1254486.0604   793  2016180.0000     Cuts: 457     7685   37.78%
      0     0  1265372.1389   821  2016180.0000     Cuts: 426     8065   37.24%
      0     0  1283997.0344   816  2016180.0000     Cuts: 396     8537   36.32%
      0     0  1292040.2839   814  2016180.0000     Cuts: 419     9056   35.92%
      0     0  1296860.7210   838  2016180.0000     Cuts: 383     9363   35.68%
      0     0  1300654.2167   861  2016180.0000     Cuts: 363     9632   35.49%
      0     0  1305607.2592   841  2016180.0000     Cuts: 270     9903   35.24%
*     0+    0                      1982331.0000  1305607.2592            34.14%
      0     0  1307368.9248   848  1982331.0000     Cuts: 191    10115   34.05%
      0     0  1309488.2049   873  1982331.0000     Cuts: 197    10295   33.94%
      0     0  1310615.0909   868  1982331.0000     Cuts: 160    10452   33.89%
      0     0  1311493.0352   856  1982331.0000     Cuts: 192    10590   33.84%
      0     0  1312530.7763   860  1982331.0000     Cuts: 138    10718   33.79%
      0     0  1313203.7111   847  1982331.0000     Cuts: 132    10840   33.75%
      0     0  1314984.8436   856  1982331.0000     Cuts: 105    10987   33.66%
      0     0  1315508.1744   854  1982331.0000      Cuts: 82    11080   33.64%
      0     0  1315935.9668   863  1982331.0000      Cuts: 71    11153   33.62%
      0     0  1316023.3418   882  1982331.0000      Cuts: 39    11207   33.61%
      0     0  1316432.3272   886  1982331.0000      Cuts: 55    11258   33.59%
      0     0  1316558.5323   873  1982331.0000      Cuts: 21    11307   33.59%
Advanced basis not built.

Clique cuts applied:  1
Cover cuts applied:  11
Implied bound cuts applied:  19
Flow cuts applied:  425
Mixed integer rounding cuts applied:  1059
Flow path cuts applied:  43
Multi commodity flow cuts applied:  59
Lift and project cuts applied:  10
Gomory fractional cuts applied:  4

Root node processing (before b&c):
  Real time             =    5.01 sec. (8934.03 ticks)
Parallel b&c, 8 threads:
  Real time             =    0.00 sec. (0.00 ticks)
  Sync time (average)   =    0.00 sec.
  Wait time (average)   =    0.00 sec.
                          ------------
Total (root+branch&cut) =    5.01 sec. (8934.03 ticks)
Gap: 33.59%
Upper bound: 1.98233e+06
Lower bound: 1.31656e+06
Termination status: Normal
End of CPLEX run. Time: 5.01085 seconds
